(set-logic ALL)
(set-option :fmf-bound true)
(set-option :produce-models true)
(declare-sort Object 0)

(declare-fun var25 (Bool) Bool)
(declare-fun var23 (Bool) Bool)
(declare-fun var15 (Bool) Bool)
(declare-fun var18 (Bool) Bool)
(declare-fun var19 (Bool) Bool)
(declare-fun var8 (Bool) Bool)
(declare-fun var10 (Bool) Bool)
(declare-fun var17 (Bool) Bool)
(declare-fun var3 (Bool) Bool)
(declare-fun var13 (Bool) Bool)
(declare-fun var4 (Bool) Bool)
(declare-fun var9 (Bool) Bool)
(declare-fun var7 (Bool) Bool)
(declare-fun var2 (Bool) Bool)
(declare-fun var1 (Bool) Bool)
(declare-fun var12 (Bool) Bool)
(declare-fun var16 (Bool) Bool)
(declare-fun var21 (Bool) Bool)
(declare-fun var6 (Bool) Bool)
(declare-fun var22 (Bool) Bool)
(declare-fun var14 (Bool) Bool)
(declare-fun var11 (Bool) Bool)
(declare-fun var5 (Bool) Bool)
(declare-fun var20 (Bool) Bool)
(declare-fun var24 (Bool) Bool)
(declare-fun GTE (Bool Bool) Bool)
(define-fun implies ((p Bool)(q Bool)) Bool (or (not p) q))

(assert (forall ((x Bool)) (not(or (var25 x) (var23 x) (not(var15 x))))))
(assert (forall ((x Bool)) (not(or (not(var18 x)) (var25 x) (var19 x)))))
(assert (forall ((x Bool)) (not(or (not(var8 x)) (not(var10 x)) (not(var17 x))))))
(assert (forall ((x Bool)) (not(or (var3 x) (var13 x) (not(var15 x))))))
(assert (forall ((x Bool)) (not(or (not(var18 x)) (var4 x) (not(var9 x))))))
(assert (forall ((x Bool)) (not(or (var13 x) (var7 x) (not(var2 x))))))
(assert (forall ((x Bool)) (not(or (not(var1 x)) (var7 x) (var23 x)))))
(assert (forall ((x Bool)) (not(or (not(var9 x)) (not(var7 x)) (not(var15 x))))))
(assert (forall ((x Bool)) (not(or (not(var7 x)) (not(var12 x)) (var16 x)))))
(assert (forall ((x Bool)) (not(or (not(var21 x)) (var9 x) (var6 x)))))
(assert (forall ((x Bool)) (not(or (var22 x) (var18 x) (var14 x)))))
(assert (forall ((x Bool)) (not(or (var7 x) (var17 x) (not(var1 x))))))
(assert (forall ((x Bool)) (not(or (var23 x) (not(var4 x)) (var11 x)))))
(assert (forall ((x Bool)) (not(or (var5 x) (var22 x) (not(var16 x))))))
(assert (forall ((x Bool)) (not(or (not(var25 x)) (var6 x) (not(var16 x))))))
(assert (forall ((x Bool)) (not(or (not(var16 x)) (not(var14 x)) (var23 x)))))
(assert (forall ((x Bool)) (not(or (not(var22 x)) (not(var23 x)) (var15 x)))))
(assert (forall ((x Bool)) (not(or (not(var14 x)) (var5 x) (var13 x)))))
(assert (forall ((x Bool)) (not(or (var19 x) (not(var6 x)) (var7 x)))))
(assert (forall ((x Bool)) (not(or (var5 x) (var10 x) (var23 x)))))
(assert (forall ((x Bool)) (not(or (not(var6 x)) (not(var9 x)) (not(var16 x))))))
(assert (forall ((x Bool)) (not(or (var25 x) (not(var13 x)) (var9 x)))))
(assert (forall ((x Bool)) (not(or (var4 x) (not(var9 x)) (var1 x)))))
(assert (forall ((x Bool)) (not(or (var21 x) (not(var9 x)) (not(var14 x))))))
(assert (forall ((x Bool)) (not(or (var16 x) (not(var20 x)) (not(var17 x))))))
(assert (forall ((x Bool))  (exists ((x1 Bool)) (and(GTE x x1)  (implies (or (not(var13 x1)) (not(var5 x1))) (not(var24 x)))))))
(assert (forall ((x Bool))  (exists ((x1 Bool)) (and(GTE x x1)  (implies (or (not(var1 x1)) (not(var8 x1))) (not(var15 x)))))))
(assert (forall ((x Bool))  (exists ((x1 Bool)) (and(GTE x x1)  (implies (or (not(var10 x1)) (var21 x1)) (var14 x))))))
(assert (forall ((x Bool))  (exists ((x1 Bool)) (and(GTE x x1)  (implies (or (not(var14 x1)) (var6 x1)) (var4 x))))))
(assert (forall ((x Bool))  (exists ((x1 Bool)) (and(GTE x x1)  (implies (var14 x1) (or (var8 x) (not(var19 x))))))))
(assert (forall ((x Bool))  (exists ((x1 Bool)) (and(GTE x x1)  (implies (var10 x1) (or (not(var22 x)) (var2 x)))))))
(assert (forall ((x Bool))  (exists ((x1 Bool)) (and(GTE x x1)  (implies (or (not(var1 x1)) (var10 x1)) (not(var4 x)))))))
(assert (forall ((x Bool))  (exists ((x1 Bool)) (and(GTE x x1)  (implies (var5 x1) (or (not(var9 x)) (var4 x)))))))
(assert (forall ((x Bool))  (exists ((x1 Bool)) (and(GTE x x1)  (implies (var11 x1) (or (var8 x) (var5 x)))))))
(assert (forall ((x Bool))  (exists ((x1 Bool)) (and(GTE x x1)  (implies (or (var17 x1) (var3 x1)) (not(var24 x)))))))
(assert (forall ((x Bool))  (exists ((x1 Bool)) (and(GTE x x1)  (implies (not(var17 x1)) (or (var25 x) (var8 x)))))))
(assert (forall ((x Bool))  (exists ((x1 Bool)) (and(GTE x x1)  (implies (or (var19 x1) (not(var10 x1))) (var13 x))))))
(assert (forall ((x Bool))  (exists ((x1 Bool)) (and(GTE x x1)  (implies (or (var25 x1) (not(var13 x1))) (var1 x))))))
(assert (forall ((x Bool))  (exists ((x1 Bool)) (and(GTE x x1)  (implies (not(var23 x1)) (or (var20 x) (not(var17 x))))))))
(assert (forall ((x Bool))  (exists ((x1 Bool)) (and(GTE x x1)  (implies (or (not(var4 x1)) (not(var19 x1))) (var3 x))))))
(assert (forall ((x Bool))  (exists ((x1 Bool)) (and(GTE x x1)  (implies (or (var10 x1) (not(var12 x1))) (not(var11 x)))))))
(assert (forall ((x Bool))  (exists ((x1 Bool)) (and(GTE x x1)  (implies (or (not(var18 x1)) (var2 x1)) (not(var19 x)))))))
(assert (forall ((x Bool))  (exists ((x1 Bool)) (and(GTE x x1)  (implies (or (var16 x1) (var12 x1)) (not(var7 x)))))))
(assert (forall ((x Bool))  (exists ((x1 Bool)) (and(GTE x x1)  (implies (var18 x1) (or (not(var13 x)) (var20 x)))))))
(assert (forall ((x Bool))  (exists ((x1 Bool)) (and(GTE x x1)  (implies (var2 x1) (or (var6 x) (not(var16 x))))))))
(assert (forall ((x Bool))  (exists ((x1 Bool)) (and(GTE x x1)  (implies (or (not(var18 x1)) (var16 x1)) (not(var23 x)))))))
(assert (forall ((x Bool))  (exists ((x1 Bool)) (and(GTE x x1)  (implies (or (not(var13 x1)) (var5 x1)) (var20 x))))))
(assert (forall ((x Bool))  (exists ((x1 Bool)) (and(GTE x x1)  (implies (var20 x1) (or (var13 x) (not(var3 x))))))))
(assert (forall ((x Bool))  (exists ((x1 Bool)) (and(GTE x x1)  (implies (or (var13 x1) (not(var15 x1))) (var14 x))))))
(assert (forall ((x Bool))  (exists ((x1 Bool)) (and(GTE x x1)  (implies (var12 x1) (or (var10 x) (var5 x)))))))
(check-sat)
(get-model)
